language Essence 1.3

letting class be function(1 --> 2, 2 --> 4, 3 --> 2, 4 --> 2, 5 --> 4, 6 --> 5, 7 --> 1, 8 --> 3)
letting deck_length be 16
letting deck_width be 49
letting length be function(1 --> 12, 2 --> 14, 3 --> 9, 4 --> 16, 5 --> 6, 6 --> 3, 7 --> 8, 8 --> 8)
letting n_classes be 5
letting n_containers be 8
letting separation be function()
letting width be function(1 --> 2, 2 --> 7, 3 --> 2, 4 --> 34, 5 --> 1, 6 --> 2, 7 --> 3, 8 --> 3)
